NAME: test1942
TYPE: TSP
DIMENSION: 11
EDGE_WEIGHT_TYPE: EUC_2D
NODE_COORD_SECTION
1 50.763332809465155 56.484674421962
2 81.82986165484567 88.59870925026772
3 74.73437978428676 48.9751715539276
4 68.81505961406894 71.33158605375604
5 60.38411708050122 93.52804262328334
6 26.5423093283608 59.41766702308039
7 66.80694138154477 99.14880878756341
8 13.527679817316617 14.548815617220356
9 33.434098705016055 84.26813916661669
10 16.137198765509385 50.94544580893048
11 79.53261503224383 95.74141697769856
EOF
